language Essence 1.3

letting n_upper be 4
letting n_places be 2
letting n_words be 2

letting length be function ( 1 --> 4, 2 --> 2  )
letting inter be function ()
letting dict be function ( 1 -->  function ( 1 --> 65, 2 --> 65, 3 --> 65, 4 --> 65  ), 
                           2 -->  function ( 1 --> 66, 2 --> 68 ) 
                         )

